10
10
836668
0
0
62 60 59 70 41 40 44 53 65 54
1
0
64 63 58 69 43 40 45 50 62 52
2
0
59 58 62 75 43 41 45 54 66 54
3
0
63 55 60 71 42 42 43 51 67 51
4
0
60 64 58 70 41 38 45 57 67 51
5
0
63 60 58 70 43 38 47 49 61 54
6
0
58 58 57 73 42 39 43 52 63 50
7
0
59 59 60 69 43 40 47 56 70 49
8
0
61 61 61 66 42 39 47 49 65 51
9
0
64 57 59 69 43 43 46 53 65 52
